DIMACS_lns/graph-1000-636.col
p edge 1000 1793
e 1 802
e 1 526
e 1 214
e 1 905
e 2 826
e 2 565
e 2 722
e 2 120
e 2 782
e 2 68
e 3 52
e 3 464
e 3 707
e 3 994
e 3 951
e 3 785
e 4 99
e 4 919
e 4 510
e 4 693
e 4 507
e 6 379
e 6 423
e 6 23
e 6 282
e 6 895
e 6 186
e 6 533
e 6 433
e 6 490
e 8 998
e 8 921
e 8 161
e 8 117
e 8 624
e 9 389
e 9 979
e 9 971
e 9 603
e 9 57
e 9 579
e 10 933
e 10 836
e 10 435
e 10 346
e 10 198
e 11 875
e 11 456
e 11 858
e 11 628
e 11 243
e 14 499
e 14 414
e 14 26
e 14 968
e 14 219
e 14 589
e 15 917
e 15 973
e 15 69
e 15 709
e 15 744
e 15 619
e 15 982
e 16 722
e 16 157
e 16 668
e 16 473
e 17 157
e 17 741
e 17 55
e 17 991
e 17 821
e 18 195
e 18 850
e 18 428
e 19 461
e 19 689
e 19 180
e 19 701
e 21 593
e 21 812
e 21 145
e 21 991
e 22 416
e 22 533
e 22 966
e 22 171
e 22 415
e 22 884
e 22 453
e 23 994
e 23 909
e 23 771
e 23 430
e 24 787
e 24 967
e 24 623
e 24 804
e 24 500
e 24 462
e 24 28
e 25 56
e 25 55
e 25 747
e 25 726
e 25 621
e 25 256
e 26 64
e 26 724
e 26 799
e 26 484
e 27 95
e 27 173
e 27 579
e 28 972
e 28 668
e 28 119
e 28 174
e 28 830
e 29 279
e 29 32
e 29 361
e 29 735
e 29 671
e 29 621
e 29 613
e 32 748
e 32 574
e 32 358
e 36 267
e 36 467
e 36 225
e 36 586
e 36 231
e 37 378
e 37 966
e 37 674
e 37 45
e 37 199
e 37 737
e 39 964
e 39 848
e 39 229
e 40 686
e 40 740
e 40 630
e 40 786
e 41 438
e 41 623
e 41 434
e 41 325
e 41 374
e 41 944
e 42 698
e 42 143
e 42 971
e 42 582
e 42 425
e 42 371
e 43 872
e 43 531
e 43 444
e 43 588
e 43 720
e 43 731
e 44 981
e 44 712
e 44 768
e 44 231
e 45 460
e 45 712
e 45 53
e 45 204
e 46 929
e 46 188
e 46 738
e 47 639
e 47 732
e 47 814
e 49 535
e 49 686
e 49 468
e 49 534
e 50 60
e 50 494
e 50 890
e 50 415
e 50 858
e 51 867
e 51 490
e 51 462
e 52 967
e 52 68
e 52 436
e 52 702
e 52 423
e 53 159
e 53 838
e 53 344
e 53 560
e 53 538
e 53 474
e 54 433
e 54 296
e 54 390
e 54 987
e 54 352
e 55 561
e 55 170
e 55 672
e 55 524
e 56 688
e 56 546
e 56 531
e 56 981
e 56 692
e 57 290
e 57 782
e 57 768
e 58 189
e 58 604
e 58 706
e 59 744
e 59 371
e 59 430
e 59 515
e 59 703
e 59 781
e 59 850
e 60 330
e 60 287
e 60 379
e 60 166
e 60 371
e 61 642
e 61 453
e 61 210
e 61 897
e 61 171
e 63 438
e 63 814
e 63 749
e 63 230
e 63 323
e 63 913
e 64 643
e 64 469
e 64 387
e 64 965
e 64 246
e 64 799
e 64 405
e 65 507
e 65 505
e 65 834
e 65 156
e 66 95
e 66 312
e 66 863
e 66 812
e 66 619
e 66 930
e 66 371
e 66 288
e 67 578
e 67 177
e 67 793
e 67 173
e 67 419
e 67 136
e 68 390
e 68 590
e 68 755
e 69 743
e 69 993
e 70 352
e 70 499
e 70 805
e 70 361
e 70 738
e 71 308
e 71 548
e 71 208
e 71 225
e 72 359
e 72 860
e 72 903
e 73 498
e 73 804
e 73 459
e 73 581
e 75 998
e 75 971
e 75 496
e 75 455
e 78 262
e 78 932
e 78 534
e 78 809
e 78 382
e 78 850
e 78 543
e 79 316
e 79 318
e 79 480
e 79 856
e 79 942
e 79 448
e 79 883
e 79 669
e 80 938
e 80 165
e 80 324
e 80 886
e 80 608
e 80 202
e 81 316
e 81 250
e 81 98
e 81 135
e 82 668
e 82 180
e 82 672
e 82 564
e 82 971
e 84 158
e 84 198
e 84 999
e 84 561
e 88 772
e 88 362
e 88 356
e 88 828
e 88 295
e 89 603
e 89 441
e 89 331
e 89 244
e 90 290
e 90 484
e 90 597
e 90 917
e 91 608
e 91 521
e 91 501
e 93 396
e 93 921
e 93 948
e 93 535
e 94 323
e 94 405
e 94 268
e 94 580
e 94 603
e 94 876
e 94 818
e 94 730
e 95 650
e 95 175
e 95 641
e 96 504
e 96 581
e 96 384
e 96 679
e 97 808
e 97 500
e 97 774
e 98 891
e 98 744
e 98 507
e 98 669
e 99 694
e 99 837
e 99 723
e 99 633
e 100 742
e 100 513
e 100 802
e 100 534
e 101 135
e 101 618
e 101 956
e 101 266
e 101 166
e 102 673
e 102 199
e 102 919
e 102 331
e 102 772
e 105 494
e 105 470
e 105 986
e 106 205
e 106 834
e 106 116
e 108 213
e 108 449
e 108 669
e 108 826
e 108 778
e 112 756
e 112 634
e 112 433
e 113 991
e 113 936
e 113 360
e 113 262
e 114 371
e 114 951
e 114 494
e 114 416
e 115 636
e 115 303
e 115 759
e 115 884
e 116 680
e 116 273
e 116 758
e 116 686
e 116 232
e 116 184
e 117 312
e 117 944
e 117 906
e 118 507
e 118 288
e 118 308
e 118 132
e 118 610
e 119 396
e 119 367
e 119 980
e 119 997
e 119 480
e 120 536
e 120 672
e 120 174
e 122 195
e 122 863
e 122 598
e 122 669
e 123 237
e 123 665
e 123 514
e 124 197
e 124 804
e 124 250
e 124 767
e 124 634
e 124 947
e 124 489
e 126 828
e 126 474
e 126 507
e 126 224
e 126 592
e 128 950
e 128 859
e 128 876
e 129 500
e 129 981
e 129 287
e 129 297
e 129 145
e 131 414
e 131 973
e 131 870
e 132 499
e 132 382
e 132 162
e 132 872
e 134 930
e 134 799
e 134 616
e 134 986
e 134 868
e 134 681
e 135 359
e 136 602
e 136 462
e 136 889
e 138 330
e 138 831
e 138 236
e 138 162
e 139 969
e 139 463
e 139 936
e 139 168
e 140 942
e 140 818
e 140 755
e 141 204
e 141 366
e 141 378
e 142 963
e 142 766
e 142 712
e 142 354
e 143 446
e 143 738
e 144 618
e 144 992
e 144 171
e 144 419
e 144 405
e 144 367
e 145 205
e 145 690
e 145 217
e 145 563
e 145 294
e 145 442
e 145 499
e 146 885
e 146 747
e 146 285
e 146 265
e 149 493
e 149 950
e 149 280
e 149 616
e 154 810
e 154 971
e 154 196
e 155 886
e 155 898
e 155 355
e 155 263
e 155 295
e 155 780
e 156 776
e 156 936
e 156 644
e 156 842
e 156 576
e 157 812
e 157 571
e 158 162
e 158 401
e 158 316
e 159 231
e 159 1000
e 159 321
e 159 401
e 160 223
e 160 200
e 160 957
e 160 213
e 161 421
e 161 292
e 161 174
e 161 186
e 161 630
e 161 981
e 161 921
e 162 773
e 162 598
e 162 644
e 162 177
e 165 524
e 165 782
e 165 358
e 166 314
e 168 731
e 168 646
e 169 451
e 169 493
e 169 993
e 170 741
e 170 176
e 170 410
e 171 402
e 171 962
e 171 742
e 173 635
e 173 407
e 173 755
e 173 255
e 173 903
e 174 543
e 174 626
e 174 798
e 174 330
e 175 444
e 175 791
e 176 794
e 176 211
e 176 500
e 176 896
e 176 493
e 176 790
e 176 401
e 176 830
e 177 692
e 177 989
e 177 997
e 179 777
e 179 215
e 179 290
e 179 190
e 179 683
e 179 809
e 179 287
e 180 669
e 180 732
e 180 758
e 180 291
e 181 474
e 181 990
e 181 531
e 181 331
e 183 813
e 183 743
e 183 797
e 183 300
e 183 741
e 183 889
e 184 507
e 184 504
e 185 290
e 185 613
e 185 987
e 185 598
e 186 964
e 186 279
e 186 972
e 187 422
e 187 309
e 187 697
e 187 527
e 187 279
e 187 804
e 188 425
e 188 989
e 188 474
e 189 824
e 189 473
e 189 534
e 189 396
e 189 461
e 189 341
e 190 430
e 190 452
e 190 947
e 190 435
e 191 561
e 191 590
e 191 243
e 191 813
e 195 872
e 195 707
e 195 384
e 196 617
e 196 312
e 196 786
e 196 643
e 197 904
e 197 777
e 197 820
e 198 580
e 198 495
e 199 318
e 199 371
e 199 305
e 199 593
e 199 654
e 199 797
e 199 436
e 200 639
e 200 253
e 200 729
e 202 842
e 202 703
e 202 890
e 202 366
e 202 265
e 203 934
e 203 717
e 203 384
e 203 519
e 204 785
e 204 712
e 204 510
e 204 975
e 204 465
e 204 287
e 204 759
e 204 487
e 205 339
e 205 619
e 206 991
e 206 314
e 206 761
e 208 828
e 208 654
e 208 277
e 208 593
e 208 268
e 208 774
e 208 293
e 208 309
e 210 856
e 210 896
e 210 687
e 210 997
e 210 619
e 210 666
e 211 809
e 211 543
e 211 309
e 213 487
e 213 717
e 213 313
e 213 442
e 214 679
e 214 233
e 214 285
e 215 490
e 215 344
e 215 914
e 215 331
e 215 916
e 217 853
e 217 917
e 217 361
e 217 592
e 217 229
e 219 589
e 219 990
e 219 986
e 219 313
e 220 659
e 220 382
e 220 932
e 220 677
e 221 260
e 221 713
e 221 814
e 221 293
e 223 536
e 223 263
e 224 404
e 224 389
e 225 729
e 225 933
e 226 733
e 226 606
e 226 739
e 226 685
e 228 953
e 228 413
e 228 537
e 228 885
e 228 301
e 228 964
e 229 769
e 229 891
e 229 764
e 230 975
e 230 282
e 230 318
e 230 685
e 230 712
e 231 386
e 231 612
e 231 570
e 232 820
e 232 630
e 233 415
e 233 943
e 235 546
e 235 597
e 235 620
e 235 624
e 235 462
e 236 459
e 236 615
e 237 890
e 237 450
e 237 396
e 237 972
e 237 499
e 238 758
e 238 999
e 238 547
e 238 473
e 238 317
e 239 713
e 239 775
e 239 729
e 241 987
e 241 437
e 241 293
e 242 610
e 242 313
e 242 249
e 242 829
e 242 765
e 242 336
e 243 707
e 243 827
e 243 568
e 243 723
e 244 324
e 244 493
e 244 354
e 244 768
e 245 526
e 245 766
e 245 737
e 245 359
e 245 343
e 246 333
e 246 808
e 246 483
e 247 571
e 247 438
e 247 709
e 249 829
e 249 309
e 250 785
e 250 768
e 251 313
e 251 875
e 251 457
e 251 535
e 251 983
e 252 927
e 252 702
e 252 606
e 252 735
e 253 744
e 253 362
e 253 906
e 253 421
e 254 754
e 254 930
e 254 737
e 255 827
e 255 657
e 255 833
e 255 881
e 255 410
e 255 651
e 255 291
e 256 723
e 256 947
e 256 529
e 256 279
e 257 626
e 257 858
e 257 699
e 260 581
e 260 531
e 262 304
e 262 845
e 262 330
e 262 610
e 262 405
e 262 639
e 263 532
e 263 378
e 263 365
e 265 707
e 265 923
e 265 790
e 265 485
e 265 343
e 266 992
e 266 972
e 266 429
e 267 942
e 267 273
e 268 581
e 268 740
e 268 525
e 268 360
e 268 697
e 271 436
e 271 812
e 271 374
e 271 602
e 273 898
e 273 470
e 275 987
e 275 603
e 275 282
e 275 382
e 276 513
e 276 909
e 276 326
e 277 886
e 277 521
e 278 516
e 278 714
e 278 894
e 279 769
e 279 302
e 279 318
e 280 370
e 280 812
e 282 997
e 282 632
e 282 911
e 285 657
e 285 952
e 287 582
e 287 738
e 288 390
e 288 613
e 290 892
e 290 1000
e 290 831
e 290 985
e 291 292
e 291 366
e 292 969
e 292 913
e 292 758
e 293 445
e 293 304
e 293 705
e 294 501
e 294 659
e 295 837
e 295 957
e 295 871
e 296 756
e 296 975
e 296 666
e 296 318
e 297 333
e 297 584
e 297 986
e 297 641
e 297 883
e 299 455
e 299 845
e 299 914
e 299 916
e 300 322
e 300 990
e 300 434
e 300 381
e 300 395
e 301 598
e 301 494
e 301 730
e 301 487
e 302 318
e 302 787
e 302 650
e 302 897
e 303 990
e 303 437
e 303 459
e 304 986
e 304 561
e 304 395
e 305 876
e 305 479
e 305 574
e 305 898
e 307 948
e 307 324
e 307 853
e 308 471
e 308 484
e 309 914
e 309 969
e 309 729
e 309 461
e 312 412
e 312 722
e 312 914
e 313 762
e 313 509
e 313 920
e 313 721
e 313 726
e 314 611
e 314 467
e 315 636
e 315 560
e 315 500
e 315 637
e 316 406
e 316 389
e 316 742
e 317 611
e 317 406
e 317 935
e 319 805
e 319 328
e 319 399
e 320 678
e 320 400
e 320 946
e 321 499
e 321 927
e 322 794
e 322 988
e 323 417
e 323 846
e 323 647
e 323 827
e 323 759
e 324 813
e 324 461
e 324 766
e 324 908
e 325 548
e 325 953
e 325 494
e 326 968
e 326 365
e 328 630
e 328 447
e 328 505
e 328 492
e 330 445
e 330 547
e 333 346
e 333 356
e 335 538
e 335 639
e 335 436
e 336 893
e 336 483
e 336 620
e 336 838
e 337 875
e 337 906
e 337 370
e 337 962
e 338 602
e 338 843
e 338 560
e 339 428
e 339 381
e 339 388
e 339 444
e 339 820
e 339 902
e 340 683
e 340 434
e 340 817
e 341 946
e 341 622
e 341 678
e 341 916
e 341 875
e 341 744
e 342 892
e 342 343
e 342 403
e 343 568
e 343 898
e 343 683
e 344 677
e 344 902
e 344 639
e 346 881
e 350 957
e 350 669
e 350 929
e 351 496
e 351 983
e 351 943
e 352 381
e 352 963
e 352 411
e 353 732
e 353 500
e 353 531
e 354 630
e 354 707
e 354 538
e 355 670
e 355 897
e 355 817
e 355 635
e 356 403
e 356 640
e 356 826
e 357 802
e 357 885
e 357 973
e 357 580
e 358 669
e 358 612
e 359 378
e 359 756
e 360 493
e 360 730
e 361 550
e 362 671
e 363 781
e 363 859
e 363 425
e 363 574
e 363 389
e 363 636
e 363 456
e 363 634
e 365 659
e 366 687
e 367 645
e 367 467
e 367 569
e 370 900
e 370 617
e 370 464
e 370 465
e 371 603
e 371 577
e 371 528
e 371 625
e 371 919
e 371 810
e 374 638
e 377 405
e 377 895
e 377 621
e 378 740
e 378 449
e 378 496
e 379 732
e 379 527
e 379 983
e 381 543
e 382 603
e 382 527
e 382 905
e 384 583
e 384 637
e 386 569
e 386 492
e 386 778
e 386 606
e 387 423
e 387 896
e 387 603
e 387 999
e 388 389
e 388 993
e 388 690
e 388 762
e 388 935
e 389 761
e 389 604
e 389 592
e 389 759
e 389 829
e 390 813
e 390 681
e 390 812
e 390 481
e 393 843
e 393 495
e 393 754
e 393 893
e 393 423
e 393 916
e 395 967
e 396 944
e 396 453
e 399 659
e 399 944
e 400 761
e 400 686
e 401 958
e 401 558
e 402 936
e 402 712
e 402 636
e 403 434
e 403 950
e 404 405
e 404 460
e 404 994
e 404 519
e 404 834
e 405 539
e 406 425
e 406 411
e 406 481
e 407 429
e 407 934
e 407 446
e 410 998
e 410 679
e 410 681
e 411 546
e 411 979
e 412 1000
e 412 617
e 412 471
e 412 856
e 413 447
e 413 945
e 414 515
e 414 971
e 414 871
e 414 775
e 414 714
e 415 752
e 415 973
e 415 671
e 415 863
e 416 594
e 417 706
e 417 778
e 417 539
e 419 481
e 419 902
e 419 547
e 419 673
e 421 773
e 421 485
e 421 979
e 422 639
e 422 694
e 427 688
e 427 674
e 427 858
e 428 540
e 428 950
e 429 452
e 429 898
e 429 665
e 430 839
e 432 659
e 432 799
e 432 888
e 433 868
e 433 945
e 435 440
e 435 692
e 435 526
e 436 555
e 436 473
e 436 747
e 436 720
e 437 651
e 437 470
e 437 624
e 437 728
e 438 913
e 440 528
e 440 564
e 440 842
e 440 911
e 441 642
e 441 898
e 441 814
e 441 620
e 442 594
e 444 613
e 444 456
e 445 696
e 445 578
e 446 593
e 446 628
e 446 723
e 446 580
e 447 647
e 448 898
e 448 742
e 448 468
e 449 642
e 450 525
e 450 643
e 450 888
e 451 919
e 451 453
e 452 509
e 452 948
e 453 684
e 453 995
e 455 904
e 456 786
e 456 913
e 456 537
e 456 578
e 457 932
e 457 911
e 458 537
e 458 567
e 458 677
e 458 1000
e 458 838
e 459 999
e 459 886
e 459 469
e 459 465
e 459 902
e 460 584
e 460 902
e 460 917
e 462 680
e 462 701
e 463 567
e 463 689
e 464 938
e 464 554
e 467 743
e 467 860
e 467 748
e 467 571
e 468 890
e 469 589
e 469 706
e 470 498
e 470 694
e 470 980
e 471 886
e 471 883
e 473 659
e 474 942
e 474 616
e 474 724
e 474 546
e 479 735
e 479 620
e 479 952
e 479 579
e 480 618
e 480 509
e 481 805
e 481 592
e 481 689
e 482 873
e 482 712
e 482 758
e 483 821
e 483 968
e 483 509
e 483 894
e 483 966
e 484 818
e 484 914
e 485 904
e 487 860
e 489 801
e 489 754
e 492 628
e 492 625
e 493 711
e 493 977
e 494 499
e 494 791
e 495 568
e 495 942
e 495 687
e 495 555
e 495 711
e 495 790
e 498 567
e 498 798
e 498 592
e 501 787
e 504 932
e 504 698
e 505 586
e 505 938
e 505 509
e 505 795
e 506 657
e 506 848
e 506 846
e 506 775
e 506 656
e 507 623
e 507 594
e 509 564
e 509 968
e 510 964
e 510 951
e 513 828
e 513 647
e 513 742
e 513 851
e 514 976
e 514 760
e 515 565
e 515 720
e 516 638
e 516 712
e 519 583
e 519 963
e 519 615
e 519 974
e 521 525
e 521 739
e 521 916
e 521 743
e 521 813
e 524 638
e 525 773
e 526 550
e 526 766
e 527 696
e 528 580
e 529 801
e 529 614
e 529 594
e 529 870
e 530 978
e 530 810
e 530 690
e 531 638
e 531 909
e 532 550
e 532 621
e 533 767
e 533 782
e 534 850
e 534 714
e 535 873
e 535 740
e 535 543
e 536 957
e 536 619
e 536 688
e 537 670
e 537 862
e 538 647
e 539 666
e 539 670
e 540 943
e 540 893
e 543 689
e 543 923
e 544 853
e 544 985
e 544 802
e 544 636
e 547 919
e 548 974
e 550 908
e 550 824
e 550 978
e 550 777
e 554 576
e 554 751
e 555 780
e 555 712
e 555 642
e 555 701
e 558 582
e 558 675
e 558 964
e 561 890
e 563 724
e 563 967
e 563 621
e 563 971
e 564 699
e 564 937
e 565 839
e 565 675
e 568 633
e 569 851
e 570 764
e 570 989
e 571 945
e 571 668
e 572 890
e 572 583
e 572 733
e 573 735
e 573 968
e 573 776
e 573 902
e 574 580
e 574 850
e 576 760
e 576 645
e 576 777
e 576 720
e 576 989
e 576 923
e 577 988
e 577 977
e 577 983
e 577 878
e 577 871
e 577 606
e 578 975
e 578 842
e 579 594
e 579 974
e 579 833
e 579 635
e 579 694
e 579 588
e 580 839
e 580 589
e 580 937
e 580 590
e 581 767
e 581 776
e 581 740
e 583 687
e 583 771
e 584 681
e 584 886
e 586 846
e 586 641
e 588 681
e 588 739
e 588 641
e 588 766
e 588 623
e 589 728
e 589 717
e 592 894
e 592 722
e 593 968
e 593 967
e 596 923
e 596 720
e 596 721
e 596 622
e 597 871
e 597 617
e 597 842
e 598 973
e 603 808
e 603 635
e 603 836
e 604 884
e 606 668
e 608 754
e 610 829
e 610 731
e 611 860
e 612 836
e 612 892
e 613 633
e 614 674
e 614 900
e 614 764
e 615 617
e 616 755
e 616 964
e 616 635
e 617 963
e 618 992
e 618 640
e 618 919
e 619 760
e 620 958
e 621 771
e 621 751
e 621 635
e 622 759
e 622 992
e 623 721
e 623 717
e 624 659
e 624 878
e 624 711
e 624 886
e 625 701
e 626 993
e 628 646
e 632 736
e 632 705
e 633 690
e 634 875
e 635 817
e 635 872
e 637 942
e 638 853
e 638 659
e 639 966
e 640 747
e 641 843
e 643 840
e 644 919
e 645 961
e 645 673
e 646 929
e 646 720
e 647 873
e 650 845
e 650 694
e 650 964
e 651 724
e 651 907
e 654 742
e 654 845
e 654 871
e 656 936
e 656 730
e 657 704
e 665 911
e 665 966
e 666 737
e 666 928
e 668 867
e 668 799
e 670 839
e 670 892
e 673 932
e 675 790
e 675 774
e 678 968
e 680 698
e 680 998
e 680 987
e 681 730
e 683 818
e 684 690
e 684 820
e 685 992
e 686 821
e 687 904
e 689 888
e 689 911
e 689 758
e 689 769
e 693 946
e 693 889
e 694 909
e 696 812
e 697 782
e 698 886
e 699 843
e 701 748
e 702 885
e 702 892
e 702 895
e 703 736
e 704 908
e 704 856
e 704 986
e 705 952
e 705 761
e 709 728
e 711 749
e 713 903
e 717 989
e 717 768
e 721 944
e 722 902
e 722 840
e 722 916
e 723 830
e 724 802
e 726 972
e 729 919
e 730 958
e 731 887
e 732 952
e 732 870
e 732 787
e 733 812
e 735 853
e 735 980
e 735 967
e 736 853
e 739 969
e 739 749
e 740 840
e 740 974
e 740 954
e 741 900
e 741 782
e 741 748
e 744 826
e 744 767
e 748 985
e 749 896
e 751 973
e 751 916
e 751 947
e 752 988
e 752 920
e 756 965
e 756 758
e 756 836
e 758 833
e 759 862
e 760 988
e 760 943
e 760 967
e 761 907
e 761 935
e 761 932
e 762 868
e 765 927
e 765 971
e 766 992
e 768 821
e 771 935
e 772 805
e 772 898
e 774 908
e 774 799
e 774 802
e 775 943
e 778 988
e 780 821
e 780 951
e 780 956
e 781 987
e 781 909
e 781 980
e 786 828
e 786 953
e 787 858
e 790 881
e 791 933
e 793 814
e 793 943
e 794 891
e 795 934
e 795 976
e 797 971
e 797 957
e 798 908
e 801 890
e 805 887
e 809 870
e 821 982
e 824 904
e 826 982
e 828 937
e 830 947
e 830 962
e 831 904
e 833 898
e 834 907
e 834 867
e 834 963
e 834 981
e 837 889
e 839 892
e 840 842
e 840 863
e 842 974
e 845 895
e 848 937
e 850 872
e 851 937
e 853 988
e 858 887
e 859 942
e 860 900
e 862 885
e 862 956
e 872 977
e 873 895
e 875 927
e 876 892
e 878 932
e 881 992
e 884 929
e 884 927
e 885 889
e 888 946
e 888 978
e 891 986
e 891 979
e 892 985
e 894 917
e 898 927
e 898 908
e 902 971
e 904 993
e 905 919
e 914 928
e 914 993
e 919 921
e 920 954
e 920 995
e 921 933
e 928 995
e 929 985
e 932 992
e 934 948
e 942 973
e 946 961
e 946 965
e 954 968
e 961 977
e 968 980
e 976 985
