txt_Ins/graph-1000-636.txt
n 1000
e 0 801
e 0 525
e 0 213
e 0 904
e 1 825
e 1 564
e 1 721
e 1 119
e 1 781
e 1 67
e 2 51
e 2 463
e 2 706
e 2 993
e 2 950
e 2 784
e 3 98
e 3 918
e 3 509
e 3 692
e 3 506
e 5 378
e 5 422
e 5 22
e 5 281
e 5 894
e 5 185
e 5 532
e 5 432
e 5 489
e 7 997
e 7 920
e 7 160
e 7 116
e 7 623
e 8 388
e 8 978
e 8 970
e 8 602
e 8 56
e 8 578
e 9 932
e 9 835
e 9 434
e 9 345
e 9 197
e 10 874
e 10 455
e 10 857
e 10 627
e 10 242
e 13 498
e 13 413
e 13 25
e 13 967
e 13 218
e 13 588
e 14 916
e 14 972
e 14 68
e 14 708
e 14 743
e 14 618
e 14 981
e 15 721
e 15 156
e 15 667
e 15 472
e 16 156
e 16 740
e 16 54
e 16 990
e 16 820
e 17 194
e 17 849
e 17 427
e 18 460
e 18 688
e 18 179
e 18 700
e 20 592
e 20 811
e 20 144
e 20 990
e 21 415
e 21 532
e 21 965
e 21 170
e 21 414
e 21 883
e 21 452
e 22 993
e 22 908
e 22 770
e 22 429
e 23 786
e 23 966
e 23 622
e 23 803
e 23 499
e 23 461
e 23 27
e 24 55
e 24 54
e 24 746
e 24 725
e 24 620
e 24 255
e 25 63
e 25 723
e 25 798
e 25 483
e 26 94
e 26 172
e 26 578
e 27 971
e 27 667
e 27 118
e 27 173
e 27 829
e 28 278
e 28 31
e 28 360
e 28 734
e 28 670
e 28 620
e 28 612
e 31 747
e 31 573
e 31 357
e 35 266
e 35 466
e 35 224
e 35 585
e 35 230
e 36 377
e 36 965
e 36 673
e 36 44
e 36 198
e 36 736
e 38 963
e 38 847
e 38 228
e 39 685
e 39 739
e 39 629
e 39 785
e 40 437
e 40 622
e 40 433
e 40 324
e 40 373
e 40 943
e 41 697
e 41 142
e 41 970
e 41 581
e 41 424
e 41 370
e 42 871
e 42 530
e 42 443
e 42 587
e 42 719
e 42 730
e 43 980
e 43 711
e 43 767
e 43 230
e 44 459
e 44 711
e 44 52
e 44 203
e 45 928
e 45 187
e 45 737
e 46 638
e 46 731
e 46 813
e 48 534
e 48 685
e 48 467
e 48 533
e 49 59
e 49 493
e 49 889
e 49 414
e 49 857
e 50 866
e 50 489
e 50 461
e 51 966
e 51 67
e 51 435
e 51 701
e 51 422
e 52 158
e 52 837
e 52 343
e 52 559
e 52 537
e 52 473
e 53 432
e 53 295
e 53 389
e 53 986
e 53 351
e 54 560
e 54 169
e 54 671
e 54 523
e 55 687
e 55 545
e 55 530
e 55 980
e 55 691
e 56 289
e 56 781
e 56 767
e 57 188
e 57 603
e 57 705
e 58 743
e 58 370
e 58 429
e 58 514
e 58 702
e 58 780
e 58 849
e 59 329
e 59 286
e 59 378
e 59 165
e 59 370
e 60 641
e 60 452
e 60 209
e 60 896
e 60 170
e 62 437
e 62 813
e 62 748
e 62 229
e 62 322
e 62 912
e 63 642
e 63 468
e 63 386
e 63 964
e 63 245
e 63 798
e 63 404
e 64 506
e 64 504
e 64 833
e 64 155
e 65 94
e 65 311
e 65 862
e 65 811
e 65 618
e 65 929
e 65 370
e 65 287
e 66 577
e 66 176
e 66 792
e 66 172
e 66 418
e 66 135
e 67 389
e 67 589
e 67 754
e 68 742
e 68 992
e 69 351
e 69 498
e 69 804
e 69 360
e 69 737
e 70 307
e 70 547
e 70 207
e 70 224
e 71 358
e 71 859
e 71 902
e 72 497
e 72 803
e 72 458
e 72 580
e 74 997
e 74 970
e 74 495
e 74 454
e 77 261
e 77 931
e 77 533
e 77 808
e 77 381
e 77 849
e 77 542
e 78 315
e 78 317
e 78 479
e 78 855
e 78 941
e 78 447
e 78 882
e 78 668
e 79 937
e 79 164
e 79 323
e 79 885
e 79 607
e 79 201
e 80 315
e 80 249
e 80 97
e 80 134
e 81 667
e 81 179
e 81 671
e 81 563
e 81 970
e 83 157
e 83 197
e 83 998
e 83 560
e 87 771
e 87 361
e 87 355
e 87 827
e 87 294
e 88 602
e 88 440
e 88 330
e 88 243
e 89 289
e 89 483
e 89 596
e 89 916
e 90 607
e 90 520
e 90 500
e 92 395
e 92 920
e 92 947
e 92 534
e 93 322
e 93 404
e 93 267
e 93 579
e 93 602
e 93 875
e 93 817
e 93 729
e 94 649
e 94 174
e 94 640
e 95 503
e 95 580
e 95 383
e 95 678
e 96 807
e 96 499
e 96 773
e 97 890
e 97 743
e 97 506
e 97 668
e 98 693
e 98 836
e 98 722
e 98 632
e 99 741
e 99 512
e 99 801
e 99 533
e 100 134
e 100 617
e 100 955
e 100 265
e 100 165
e 101 672
e 101 198
e 101 918
e 101 330
e 101 771
e 104 493
e 104 469
e 104 985
e 105 204
e 105 833
e 105 115
e 107 212
e 107 448
e 107 668
e 107 825
e 107 777
e 111 755
e 111 633
e 111 432
e 112 990
e 112 935
e 112 359
e 112 261
e 113 370
e 113 950
e 113 493
e 113 415
e 114 635
e 114 302
e 114 758
e 114 883
e 115 679
e 115 272
e 115 757
e 115 685
e 115 231
e 115 183
e 116 311
e 116 943
e 116 905
e 117 506
e 117 287
e 117 307
e 117 131
e 117 609
e 118 395
e 118 366
e 118 979
e 118 996
e 118 479
e 119 535
e 119 671
e 119 173
e 121 194
e 121 862
e 121 597
e 121 668
e 122 236
e 122 664
e 122 513
e 123 196
e 123 803
e 123 249
e 123 766
e 123 633
e 123 946
e 123 488
e 125 827
e 125 473
e 125 506
e 125 223
e 125 591
e 127 949
e 127 858
e 127 875
e 128 499
e 128 980
e 128 286
e 128 296
e 128 144
e 130 413
e 130 972
e 130 869
e 131 498
e 131 381
e 131 161
e 131 871
e 133 929
e 133 798
e 133 615
e 133 985
e 133 867
e 133 680
e 134 358
e 135 601
e 135 461
e 135 888
e 137 329
e 137 830
e 137 235
e 137 161
e 138 968
e 138 462
e 138 935
e 138 167
e 139 941
e 139 817
e 139 754
e 140 203
e 140 365
e 140 377
e 141 962
e 141 765
e 141 711
e 141 353
e 142 445
e 142 737
e 143 617
e 143 991
e 143 170
e 143 418
e 143 404
e 143 366
e 144 204
e 144 689
e 144 216
e 144 562
e 144 293
e 144 441
e 144 498
e 145 884
e 145 746
e 145 284
e 145 264
e 148 492
e 148 949
e 148 279
e 148 615
e 153 809
e 153 970
e 153 195
e 154 885
e 154 897
e 154 354
e 154 262
e 154 294
e 154 779
e 155 775
e 155 935
e 155 643
e 155 841
e 155 575
e 156 811
e 156 570
e 157 161
e 157 400
e 157 315
e 158 230
e 158 999
e 158 320
e 158 400
e 159 222
e 159 199
e 159 956
e 159 212
e 160 420
e 160 291
e 160 173
e 160 185
e 160 629
e 160 980
e 160 920
e 161 772
e 161 597
e 161 643
e 161 176
e 164 523
e 164 781
e 164 357
e 165 313
e 167 730
e 167 645
e 168 450
e 168 492
e 168 992
e 169 740
e 169 175
e 169 409
e 170 401
e 170 961
e 170 741
e 172 634
e 172 406
e 172 754
e 172 254
e 172 902
e 173 542
e 173 625
e 173 797
e 173 329
e 174 443
e 174 790
e 175 793
e 175 210
e 175 499
e 175 895
e 175 492
e 175 789
e 175 400
e 175 829
e 176 691
e 176 988
e 176 996
e 178 776
e 178 214
e 178 289
e 178 189
e 178 682
e 178 808
e 178 286
e 179 668
e 179 731
e 179 757
e 179 290
e 180 473
e 180 989
e 180 530
e 180 330
e 182 812
e 182 742
e 182 796
e 182 299
e 182 740
e 182 888
e 183 506
e 183 503
e 184 289
e 184 612
e 184 986
e 184 597
e 185 963
e 185 278
e 185 971
e 186 421
e 186 308
e 186 696
e 186 526
e 186 278
e 186 803
e 187 424
e 187 988
e 187 473
e 188 823
e 188 472
e 188 533
e 188 395
e 188 460
e 188 340
e 189 429
e 189 451
e 189 946
e 189 434
e 190 560
e 190 589
e 190 242
e 190 812
e 194 871
e 194 706
e 194 383
e 195 616
e 195 311
e 195 785
e 195 642
e 196 903
e 196 776
e 196 819
e 197 579
e 197 494
e 198 317
e 198 370
e 198 304
e 198 592
e 198 653
e 198 796
e 198 435
e 199 638
e 199 252
e 199 728
e 201 841
e 201 702
e 201 889
e 201 365
e 201 264
e 202 933
e 202 716
e 202 383
e 202 518
e 203 784
e 203 711
e 203 509
e 203 974
e 203 464
e 203 286
e 203 758
e 203 486
e 204 338
e 204 618
e 205 990
e 205 313
e 205 760
e 207 827
e 207 653
e 207 276
e 207 592
e 207 267
e 207 773
e 207 292
e 207 308
e 209 855
e 209 895
e 209 686
e 209 996
e 209 618
e 209 665
e 210 808
e 210 542
e 210 308
e 212 486
e 212 716
e 212 312
e 212 441
e 213 678
e 213 232
e 213 284
e 214 489
e 214 343
e 214 913
e 214 330
e 214 915
e 216 852
e 216 916
e 216 360
e 216 591
e 216 228
e 218 588
e 218 989
e 218 985
e 218 312
e 219 658
e 219 381
e 219 931
e 219 676
e 220 259
e 220 712
e 220 813
e 220 292
e 222 535
e 222 262
e 223 403
e 223 388
e 224 728
e 224 932
e 225 732
e 225 605
e 225 738
e 225 684
e 227 952
e 227 412
e 227 536
e 227 884
e 227 300
e 227 963
e 228 768
e 228 890
e 228 763
e 229 974
e 229 281
e 229 317
e 229 684
e 229 711
e 230 385
e 230 611
e 230 569
e 231 819
e 231 629
e 232 414
e 232 942
e 234 545
e 234 596
e 234 619
e 234 623
e 234 461
e 235 458
e 235 614
e 236 889
e 236 449
e 236 395
e 236 971
e 236 498
e 237 757
e 237 998
e 237 546
e 237 472
e 237 316
e 238 712
e 238 774
e 238 728
e 240 986
e 240 436
e 240 292
e 241 609
e 241 312
e 241 248
e 241 828
e 241 764
e 241 335
e 242 706
e 242 826
e 242 567
e 242 722
e 243 323
e 243 492
e 243 353
e 243 767
e 244 525
e 244 765
e 244 736
e 244 358
e 244 342
e 245 332
e 245 807
e 245 482
e 246 570
e 246 437
e 246 708
e 248 828
e 248 308
e 249 784
e 249 767
e 250 312
e 250 874
e 250 456
e 250 534
e 250 982
e 251 926
e 251 701
e 251 605
e 251 734
e 252 743
e 252 361
e 252 905
e 252 420
e 253 753
e 253 929
e 253 736
e 254 826
e 254 656
e 254 832
e 254 880
e 254 409
e 254 650
e 254 290
e 255 722
e 255 946
e 255 528
e 255 278
e 256 625
e 256 857
e 256 698
e 259 580
e 259 530
e 261 303
e 261 844
e 261 329
e 261 609
e 261 404
e 261 638
e 262 531
e 262 377
e 262 364
e 264 706
e 264 922
e 264 789
e 264 484
e 264 342
e 265 991
e 265 971
e 265 428
e 266 941
e 266 272
e 267 580
e 267 739
e 267 524
e 267 359
e 267 696
e 270 435
e 270 811
e 270 373
e 270 601
e 272 897
e 272 469
e 274 986
e 274 602
e 274 281
e 274 381
e 275 512
e 275 908
e 275 325
e 276 885
e 276 520
e 277 515
e 277 713
e 277 893
e 278 768
e 278 301
e 278 317
e 279 369
e 279 811
e 281 996
e 281 631
e 281 910
e 284 656
e 284 951
e 286 581
e 286 737
e 287 389
e 287 612
e 289 891
e 289 999
e 289 830
e 289 984
e 290 291
e 290 365
e 291 968
e 291 912
e 291 757
e 292 444
e 292 303
e 292 704
e 293 500
e 293 658
e 294 836
e 294 956
e 294 870
e 295 755
e 295 974
e 295 665
e 295 317
e 296 332
e 296 583
e 296 985
e 296 640
e 296 882
e 298 454
e 298 844
e 298 913
e 298 915
e 299 321
e 299 989
e 299 433
e 299 380
e 299 394
e 300 597
e 300 493
e 300 729
e 300 486
e 301 317
e 301 786
e 301 649
e 301 896
e 302 989
e 302 436
e 302 458
e 303 985
e 303 560
e 303 394
e 304 875
e 304 478
e 304 573
e 304 897
e 306 947
e 306 323
e 306 852
e 307 470
e 307 483
e 308 913
e 308 968
e 308 728
e 308 460
e 311 411
e 311 721
e 311 913
e 312 761
e 312 508
e 312 919
e 312 720
e 312 725
e 313 610
e 313 466
e 314 635
e 314 559
e 314 499
e 314 636
e 315 405
e 315 388
e 315 741
e 316 610
e 316 405
e 316 934
e 318 804
e 318 327
e 318 398
e 319 677
e 319 399
e 319 945
e 320 498
e 320 926
e 321 793
e 321 987
e 322 416
e 322 845
e 322 646
e 322 826
e 322 758
e 323 812
e 323 460
e 323 765
e 323 907
e 324 547
e 324 952
e 324 493
e 325 967
e 325 364
e 327 629
e 327 446
e 327 504
e 327 491
e 329 444
e 329 546
e 332 345
e 332 355
e 334 537
e 334 638
e 334 435
e 335 892
e 335 482
e 335 619
e 335 837
e 336 874
e 336 905
e 336 369
e 336 961
e 337 601
e 337 842
e 337 559
e 338 427
e 338 380
e 338 387
e 338 443
e 338 819
e 338 901
e 339 682
e 339 433
e 339 816
e 340 945
e 340 621
e 340 677
e 340 915
e 340 874
e 340 743
e 341 891
e 341 342
e 341 402
e 342 567
e 342 897
e 342 682
e 343 676
e 343 901
e 343 638
e 345 880
e 349 956
e 349 668
e 349 928
e 350 495
e 350 982
e 350 942
e 351 380
e 351 962
e 351 410
e 352 731
e 352 499
e 352 530
e 353 629
e 353 706
e 353 537
e 354 669
e 354 896
e 354 816
e 354 634
e 355 402
e 355 639
e 355 825
e 356 801
e 356 884
e 356 972
e 356 579
e 357 668
e 357 611
e 358 377
e 358 755
e 359 492
e 359 729
e 360 549
e 361 670
e 362 780
e 362 858
e 362 424
e 362 573
e 362 388
e 362 635
e 362 455
e 362 633
e 364 658
e 365 686
e 366 644
e 366 466
e 366 568
e 369 899
e 369 616
e 369 463
e 369 464
e 370 602
e 370 576
e 370 527
e 370 624
e 370 918
e 370 809
e 373 637
e 376 404
e 376 894
e 376 620
e 377 739
e 377 448
e 377 495
e 378 731
e 378 526
e 378 982
e 380 542
e 381 602
e 381 526
e 381 904
e 383 582
e 383 636
e 385 568
e 385 491
e 385 777
e 385 605
e 386 422
e 386 895
e 386 602
e 386 998
e 387 388
e 387 992
e 387 689
e 387 761
e 387 934
e 388 760
e 388 603
e 388 591
e 388 758
e 388 828
e 389 812
e 389 680
e 389 811
e 389 480
e 392 842
e 392 494
e 392 753
e 392 892
e 392 422
e 392 915
e 394 966
e 395 943
e 395 452
e 398 658
e 398 943
e 399 760
e 399 685
e 400 957
e 400 557
e 401 935
e 401 711
e 401 635
e 402 433
e 402 949
e 403 404
e 403 459
e 403 993
e 403 518
e 403 833
e 404 538
e 405 424
e 405 410
e 405 480
e 406 428
e 406 933
e 406 445
e 409 997
e 409 678
e 409 680
e 410 545
e 410 978
e 411 999
e 411 616
e 411 470
e 411 855
e 412 446
e 412 944
e 413 514
e 413 970
e 413 870
e 413 774
e 413 713
e 414 751
e 414 972
e 414 670
e 414 862
e 415 593
e 416 705
e 416 777
e 416 538
e 418 480
e 418 901
e 418 546
e 418 672
e 420 772
e 420 484
e 420 978
e 421 638
e 421 693
e 426 687
e 426 673
e 426 857
e 427 539
e 427 949
e 428 451
e 428 897
e 428 664
e 429 838
e 431 658
e 431 798
e 431 887
e 432 867
e 432 944
e 434 439
e 434 691
e 434 525
e 435 554
e 435 472
e 435 746
e 435 719
e 436 650
e 436 469
e 436 623
e 436 727
e 437 912
e 439 527
e 439 563
e 439 841
e 439 910
e 440 641
e 440 897
e 440 813
e 440 619
e 441 593
e 443 612
e 443 455
e 444 695
e 444 577
e 445 592
e 445 627
e 445 722
e 445 579
e 446 646
e 447 897
e 447 741
e 447 467
e 448 641
e 449 524
e 449 642
e 449 887
e 450 918
e 450 452
e 451 508
e 451 947
e 452 683
e 452 994
e 454 903
e 455 785
e 455 912
e 455 536
e 455 577
e 456 931
e 456 910
e 457 536
e 457 566
e 457 676
e 457 999
e 457 837
e 458 998
e 458 885
e 458 468
e 458 464
e 458 901
e 459 583
e 459 901
e 459 916
e 461 679
e 461 700
e 462 566
e 462 688
e 463 937
e 463 553
e 466 742
e 466 859
e 466 747
e 466 570
e 467 889
e 468 588
e 468 705
e 469 497
e 469 693
e 469 979
e 470 885
e 470 882
e 472 658
e 473 941
e 473 615
e 473 723
e 473 545
e 478 734
e 478 619
e 478 951
e 478 578
e 479 617
e 479 508
e 480 804
e 480 591
e 480 688
e 481 872
e 481 711
e 481 757
e 482 820
e 482 967
e 482 508
e 482 893
e 482 965
e 483 817
e 483 913
e 484 903
e 486 859
e 488 800
e 488 753
e 491 627
e 491 624
e 492 710
e 492 976
e 493 498
e 493 790
e 494 567
e 494 941
e 494 686
e 494 554
e 494 710
e 494 789
e 497 566
e 497 797
e 497 591
e 500 786
e 503 931
e 503 697
e 504 585
e 504 937
e 504 508
e 504 794
e 505 656
e 505 847
e 505 845
e 505 774
e 505 655
e 506 622
e 506 593
e 508 563
e 508 967
e 509 963
e 509 950
e 512 827
e 512 646
e 512 741
e 512 850
e 513 975
e 513 759
e 514 564
e 514 719
e 515 637
e 515 711
e 518 582
e 518 962
e 518 614
e 518 973
e 520 524
e 520 738
e 520 915
e 520 742
e 520 812
e 523 637
e 524 772
e 525 549
e 525 765
e 526 695
e 527 579
e 528 800
e 528 613
e 528 593
e 528 869
e 529 977
e 529 809
e 529 689
e 530 637
e 530 908
e 531 549
e 531 620
e 532 766
e 532 781
e 533 849
e 533 713
e 534 872
e 534 739
e 534 542
e 535 956
e 535 618
e 535 687
e 536 669
e 536 861
e 537 646
e 538 665
e 538 669
e 539 942
e 539 892
e 542 688
e 542 922
e 543 852
e 543 984
e 543 801
e 543 635
e 546 918
e 547 973
e 549 907
e 549 823
e 549 977
e 549 776
e 553 575
e 553 750
e 554 779
e 554 711
e 554 641
e 554 700
e 557 581
e 557 674
e 557 963
e 560 889
e 562 723
e 562 966
e 562 620
e 562 970
e 563 698
e 563 936
e 564 838
e 564 674
e 567 632
e 568 850
e 569 763
e 569 988
e 570 944
e 570 667
e 571 889
e 571 582
e 571 732
e 572 734
e 572 967
e 572 775
e 572 901
e 573 579
e 573 849
e 575 759
e 575 644
e 575 776
e 575 719
e 575 988
e 575 922
e 576 987
e 576 976
e 576 982
e 576 877
e 576 870
e 576 605
e 577 974
e 577 841
e 578 593
e 578 973
e 578 832
e 578 634
e 578 693
e 578 587
e 579 838
e 579 588
e 579 936
e 579 589
e 580 766
e 580 775
e 580 739
e 582 686
e 582 770
e 583 680
e 583 885
e 585 845
e 585 640
e 587 680
e 587 738
e 587 640
e 587 765
e 587 622
e 588 727
e 588 716
e 591 893
e 591 721
e 592 967
e 592 966
e 595 922
e 595 719
e 595 720
e 595 621
e 596 870
e 596 616
e 596 841
e 597 972
e 602 807
e 602 634
e 602 835
e 603 883
e 605 667
e 607 753
e 609 828
e 609 730
e 610 859
e 611 835
e 611 891
e 612 632
e 613 673
e 613 899
e 613 763
e 614 616
e 615 754
e 615 963
e 615 634
e 616 962
e 617 991
e 617 639
e 617 918
e 618 759
e 619 957
e 620 770
e 620 750
e 620 634
e 621 758
e 621 991
e 622 720
e 622 716
e 623 658
e 623 877
e 623 710
e 623 885
e 624 700
e 625 992
e 627 645
e 631 735
e 631 704
e 632 689
e 633 874
e 634 816
e 634 871
e 636 941
e 637 852
e 637 658
e 638 965
e 639 746
e 640 842
e 642 839
e 643 918
e 644 960
e 644 672
e 645 928
e 645 719
e 646 872
e 649 844
e 649 693
e 649 963
e 650 723
e 650 906
e 653 741
e 653 844
e 653 870
e 655 935
e 655 729
e 656 703
e 664 910
e 664 965
e 665 736
e 665 927
e 667 866
e 667 798
e 669 838
e 669 891
e 672 931
e 674 789
e 674 773
e 677 967
e 679 697
e 679 997
e 679 986
e 680 729
e 682 817
e 683 689
e 683 819
e 684 991
e 685 820
e 686 903
e 688 887
e 688 910
e 688 757
e 688 768
e 692 945
e 692 888
e 693 908
e 695 811
e 696 781
e 697 885
e 698 842
e 700 747
e 701 884
e 701 891
e 701 894
e 702 735
e 703 907
e 703 855
e 703 985
e 704 951
e 704 760
e 708 727
e 710 748
e 712 902
e 716 988
e 716 767
e 720 943
e 721 901
e 721 839
e 721 915
e 722 829
e 723 801
e 725 971
e 728 918
e 729 957
e 730 886
e 731 951
e 731 869
e 731 786
e 732 811
e 734 852
e 734 979
e 734 966
e 735 852
e 738 968
e 738 748
e 739 839
e 739 973
e 739 953
e 740 899
e 740 781
e 740 747
e 743 825
e 743 766
e 747 984
e 748 895
e 750 972
e 750 915
e 750 946
e 751 987
e 751 919
e 755 964
e 755 757
e 755 835
e 757 832
e 758 861
e 759 987
e 759 942
e 759 966
e 760 906
e 760 934
e 760 931
e 761 867
e 764 926
e 764 970
e 765 991
e 767 820
e 770 934
e 771 804
e 771 897
e 773 907
e 773 798
e 773 801
e 774 942
e 777 987
e 779 820
e 779 950
e 779 955
e 780 986
e 780 908
e 780 979
e 785 827
e 785 952
e 786 857
e 789 880
e 790 932
e 792 813
e 792 942
e 793 890
e 794 933
e 794 975
e 796 970
e 796 956
e 797 907
e 800 889
e 804 886
e 808 869
e 820 981
e 823 903
e 825 981
e 827 936
e 829 946
e 829 961
e 830 903
e 832 897
e 833 906
e 833 866
e 833 962
e 833 980
e 836 888
e 838 891
e 839 841
e 839 862
e 841 973
e 844 894
e 847 936
e 849 871
e 850 936
e 852 987
e 857 886
e 858 941
e 859 899
e 861 884
e 861 955
e 871 976
e 872 894
e 874 926
e 875 891
e 877 931
e 880 991
e 883 928
e 883 926
e 884 888
e 887 945
e 887 977
e 890 985
e 890 978
e 891 984
e 893 916
e 897 926
e 897 907
e 901 970
e 903 992
e 904 918
e 913 927
e 913 992
e 918 920
e 919 953
e 919 994
e 920 932
e 927 994
e 928 984
e 931 991
e 933 947
e 941 972
e 945 960
e 945 964
e 953 967
e 960 976
e 967 979
e 975 984
